SECTION Graph
Nodes 1704
Edges 2991
E 1 2 5
E 2 3 5
E 3 4 5
E 4 5 5
E 5 6 5
E 6 7 5
E 7 8 5
E 8 9 5
E 9 10 5
E 10 11 5
E 11 12 5
E 12 13 5
E 13 14 5
E 14 15 5
E 15 16 5
E 16 17 5
E 17 18 5
E 18 19 5
E 19 20 5
E 20 21 5
E 21 22 5
E 22 23 5
E 23 24 5
E 24 25 5
E 25 26 5
E 26 27 5
E 27 28 5
E 28 29 5
E 29 30 5
E 30 31 5
E 31 32 5
E 32 33 5
E 33 34 5
E 34 35 5
E 35 36 5
E 36 37 5
E 37 38 5
E 38 39 5
E 1 40 13
E 2 41 13
E 3 42 13
E 4 43 13
E 5 44 13
E 6 45 13
E 7 46 13
E 8 47 13
E 9 48 13
E 10 49 13
E 11 50 13
E 12 51 13
E 13 52 13
E 14 53 13
E 15 54 13
E 16 55 13
E 17 56 13
E 18 57 13
E 19 58 13
E 20 59 13
E 21 60 13
E 22 61 13
E 23 62 13
E 24 63 13
E 25 64 13
E 26 65 13
E 27 66 13
E 28 67 13
E 30 69 13
E 31 70 13
E 32 71 13
E 33 72 13
E 34 73 13
E 35 74 13
E 36 75 13
E 39 78 13
E 40 41 5
E 41 42 5
E 42 43 5
E 43 44 5
E 44 45 5
E 45 46 5
E 46 47 5
E 47 48 5
E 48 49 5
E 49 50 5
E 50 51 5
E 51 52 5
E 52 53 5
E 53 54 5
E 54 55 5
E 55 56 5
E 56 57 5
E 57 58 5
E 58 59 5
E 59 60 5
E 60 61 5
E 61 62 5
E 62 63 5
E 63 64 5
E 64 65 5
E 65 66 5
E 66 67 5
E 67 68 5
E 68 69 5
E 69 70 5
E 70 71 5
E 71 72 5
E 72 73 5
E 73 74 5
E 74 75 5
E 75 76 5
E 76 77 5
E 77 78 5
E 40 79 13
E 41 80 13
E 42 81 13
E 43 82 13
E 45 84 13
E 46 85 13
E 47 86 13
E 48 87 13
E 49 88 13
E 50 89 13
E 51 90 13
E 52 91 13
E 53 92 13
E 54 93 13
E 55 94 13
E 56 95 13
E 58 97 13
E 59 98 13
E 60 99 13
E 61 100 13
E 62 101 13
E 63 102 13
E 64 103 13
E 66 105 13
E 67 106 13
E 68 107 13
E 69 108 13
E 70 109 13
E 71 110 13
E 72 111 13
E 73 112 13
E 74 113 13
E 75 114 13
E 76 115 13
E 77 116 13
E 78 117 13
E 79 80 5
E 80 81 5
E 81 82 5
E 82 83 5
E 83 84 5
E 84 85 5
E 85 86 5
E 86 87 5
E 87 88 5
E 88 89 5
E 89 90 5
E 90 91 5
E 91 92 5
E 92 93 5
E 93 94 5
E 94 95 5
E 95 96 5
E 96 97 5
E 97 98 5
E 98 99 5
E 99 100 5
E 100 101 5
E 101 102 5
E 102 103 5
E 103 104 5
E 104 105 5
E 105 106 5
E 106 107 5
E 107 108 5
E 108 109 5
E 109 110 5
E 110 111 5
E 111 112 5
E 112 113 5
E 113 114 5
E 114 115 5
E 115 116 5
E 116 117 5
E 80 119 13
E 82 121 13
E 83 122 13
E 84 123 13
E 85 124 13
E 86 125 13
E 87 126 13
E 88 127 13
E 89 128 13
E 90 129 13
E 91 130 13
E 92 131 13
E 93 132 13
E 95 134 13
E 96 135 13
E 97 136 13
E 98 137 13
E 99 138 13
E 100 139 13
E 101 140 13
E 102 141 13
E 103 142 13
E 104 143 13
E 105 144 13
E 106 145 13
E 107 146 13
E 108 147 13
E 109 148 13
E 110 149 13
E 111 150 13
E 112 151 13
E 113 152 13
E 114 153 13
E 115 154 13
E 116 155 13
E 117 156 13
E 118 119 5
E 119 120 5
E 120 121 5
E 121 122 5
E 122 123 5
E 123 124 5
E 124 125 5
E 125 126 5
E 126 127 5
E 127 128 5
E 128 129 5
E 129 130 5
E 130 131 5
E 131 132 5
E 132 133 5
E 133 134 5
E 134 135 5
E 135 136 5
E 136 137 5
E 137 138 5
E 138 139 5
E 139 140 5
E 140 141 5
E 141 142 5
E 142 143 5
E 143 144 5
E 144 145 5
E 145 146 5
E 146 147 5
E 147 148 5
E 148 149 5
E 149 150 5
E 150 151 5
E 151 152 5
E 152 153 5
E 153 154 5
E 154 155 5
E 155 156 5
E 118 157 13
E 120 159 13
E 121 160 13
E 122 161 13
E 123 162 13
E 124 163 13
E 125 164 13
E 126 165 13
E 127 166 13
E 128 167 13
E 129 168 13
E 130 169 13
E 131 170 13
E 132 171 13
E 133 172 13
E 134 173 13
E 136 175 13
E 137 176 13
E 138 177 13
E 139 178 13
E 140 179 13
E 141 180 13
E 142 181 13
E 144 183 13
E 146 185 13
E 147 186 13
E 148 187 13
E 149 188 13
E 150 189 13
E 151 190 13
E 152 191 13
E 153 192 13
E 154 193 13
E 155 194 13
E 156 195 13
E 157 158 5
E 158 159 5
E 159 160 5
E 160 161 5
E 161 162 5
E 162 163 5
E 163 164 5
E 164 165 5
E 165 166 5
E 166 167 5
E 167 168 5
E 168 169 5
E 169 170 5
E 170 171 5
E 171 172 5
E 172 173 5
E 173 174 5
E 174 175 5
E 175 176 5
E 176 177 5
E 177 178 5
E 178 179 5
E 179 180 5
E 180 181 5
E 181 182 5
E 182 183 5
E 183 184 5
E 184 185 5
E 185 186 5
E 186 187 5
E 187 188 5
E 188 189 5
E 189 190 5
E 190 191 5
E 191 192 5
E 192 193 5
E 193 194 5
E 194 195 5
E 157 196 13
E 158 197 13
E 159 198 13
E 160 199 13
E 161 200 13
E 163 202 13
E 164 203 13
E 165 204 13
E 166 205 13
E 167 206 13
E 168 207 13
E 170 209 13
E 171 210 13
E 172 211 13
E 173 212 13
E 174 213 13
E 175 214 13
E 176 215 13
E 177 216 13
E 178 217 13
E 179 218 13
E 180 219 13
E 181 220 13
E 182 221 13
E 183 222 13
E 184 223 13
E 185 224 13
E 186 225 13
E 187 226 13
E 188 227 13
E 189 228 13
E 190 229 13
E 191 230 13
E 192 231 13
E 193 232 13
E 194 233 13
E 195 234 13
E 196 197 5
E 197 198 5
E 198 199 5
E 199 200 5
E 200 201 5
E 201 202 5
E 202 203 5
E 203 204 5
E 204 205 5
E 205 206 5
E 206 207 5
E 207 208 5
E 208 209 5
E 209 210 5
E 210 211 5
E 211 212 5
E 212 213 5
E 213 214 5
E 214 215 5
E 215 216 5
E 216 217 5
E 217 218 5
E 218 219 5
E 219 220 5
E 220 221 5
E 221 222 5
E 222 223 5
E 223 224 5
E 224 225 5
E 225 226 5
E 226 227 5
E 227 228 5
E 228 229 5
E 229 230 5
E 230 231 5
E 231 232 5
E 232 233 5
E 233 234 5
E 196 235 13
E 197 236 13
E 198 237 13
E 199 238 13
E 200 239 13
E 201 240 13
E 202 241 13
E 203 242 13
E 204 243 13
E 205 244 13
E 206 245 13
E 207 246 13
E 208 247 13
E 209 248 13
E 210 249 13
E 211 250 13
E 212 251 13
E 213 252 13
E 214 253 13
E 215 254 13
E 216 255 13
E 217 256 13
E 218 257 13
E 219 258 13
E 220 259 13
E 221 260 13
E 222 261 13
E 223 262 13
E 224 263 13
E 225 264 13
E 226 265 13
E 227 266 13
E 228 267 13
E 229 268 13
E 230 269 13
E 231 270 13
E 232 271 13
E 233 272 13
E 234 273 13
E 235 236 5
E 236 237 5
E 237 238 5
E 238 239 5
E 239 240 5
E 240 241 5
E 241 242 5
E 242 243 5
E 243 244 5
E 244 245 5
E 245 246 5
E 246 247 5
E 247 248 5
E 248 249 5
E 249 250 5
E 250 251 5
E 251 252 5
E 252 253 5
E 253 254 5
E 254 255 5
E 255 256 5
E 256 257 5
E 257 258 5
E 258 259 5
E 259 260 5
E 260 261 5
E 261 262 5
E 262 263 5
E 263 264 5
E 264 265 5
E 265 266 5
E 266 267 5
E 267 268 5
E 268 269 5
E 269 270 5
E 270 271 5
E 271 272 5
E 272 273 5
E 235 274 13
E 236 275 13
E 237 276 13
E 238 277 13
E 239 278 13
E 240 279 13
E 241 280 13
E 242 281 13
E 243 282 13
E 244 283 13
E 245 284 13
E 246 285 13
E 247 286 13
E 248 287 13
E 249 288 13
E 250 289 13
E 251 290 13
E 252 291 13
E 254 292 13
E 255 293 13
E 256 294 13
E 257 295 13
E 258 296 13
E 259 297 13
E 261 299 13
E 262 300 13
E 263 301 13
E 264 302 13
E 265 303 13
E 266 304 13
E 267 305 13
E 268 306 13
E 269 307 13
E 271 309 13
E 272 310 13
E 273 311 13
E 274 275 5
E 275 276 5
E 276 277 5
E 277 278 5
E 278 279 5
E 279 280 5
E 280 281 5
E 281 282 5
E 282 283 5
E 283 284 5
E 284 285 5
E 285 286 5
E 286 287 5
E 287 288 5
E 288 289 5
E 289 290 5
E 290 291 5
E 292 293 5
E 293 294 5
E 294 295 5
E 295 296 5
E 296 297 5
E 297 298 5
E 298 299 5
E 299 300 5
E 300 301 5
E 301 302 5
E 302 303 5
E 303 304 5
E 304 305 5
E 305 306 5
E 306 307 5
E 307 308 5
E 308 309 5
E 309 310 5
E 310 311 5
E 274 312 13
E 275 313 13
E 276 314 13
E 277 315 13
E 278 316 13
E 279 317 13
E 280 318 13
E 281 319 13
E 282 320 13
E 283 321 13
E 284 322 13
E 285 323 13
E 286 324 13
E 288 325 13
E 289 326 13
E 290 327 13
E 291 328 13
E 292 330 13
E 293 331 13
E 294 332 13
E 295 333 13
E 296 334 13
E 297 335 13
E 298 336 13
E 299 337 13
E 300 338 13
E 301 339 13
E 302 340 13
E 303 341 13
E 304 342 13
E 305 343 13
E 306 344 13
E 307 345 13
E 308 346 13
E 309 347 13
E 310 348 13
E 311 349 13
E 312 313 5
E 313 314 5
E 314 315 5
E 315 316 5
E 316 317 5
E 317 318 5
E 318 319 5
E 319 320 5
E 320 321 5
E 321 322 5
E 322 323 5
E 323 324 5
E 325 326 5
E 326 327 5
E 327 328 5
E 328 329 5
E 329 330 5
E 330 331 5
E 331 332 5
E 332 333 5
E 333 334 5
E 334 335 5
E 335 336 5
E 336 337 5
E 337 338 5
E 338 339 5
E 339 340 5
E 340 341 5
E 341 342 5
E 342 343 5
E 343 344 5
E 344 345 5
E 345 346 5
E 346 347 5
E 347 348 5
E 348 349 5
E 312 350 13
E 314 352 13
E 315 353 13
E 316 354 13
E 317 355 13
E 319 356 13
E 320 357 13
E 321 358 13
E 322 359 13
E 323 360 13
E 324 361 13
E 325 362 13
E 327 364 13
E 328 365 13
E 329 366 13
E 330 367 13
E 331 368 13
E 332 369 13
E 333 370 13
E 334 371 13
E 335 372 13
E 338 375 13
E 339 376 13
E 340 377 13
E 341 378 13
E 342 379 13
E 343 380 13
E 344 381 13
E 345 382 13
E 347 384 13
E 348 385 13
E 349 386 13
E 350 351 5
E 351 352 5
E 352 353 5
E 353 354 5
E 354 355 5
E 356 357 5
E 357 358 5
E 358 359 5
E 359 360 5
E 360 361 5
E 362 363 5
E 363 364 5
E 364 365 5
E 365 366 5
E 366 367 5
E 367 368 5
E 368 369 5
E 369 370 5
E 370 371 5
E 371 372 5
E 372 373 5
E 373 374 5
E 374 375 5
E 375 376 5
E 376 377 5
E 377 378 5
E 378 379 5
E 379 380 5
E 380 381 5
E 381 382 5
E 382 383 5
E 383 384 5
E 384 385 5
E 385 386 5
E 350 387 13
E 351 388 13
E 352 389 13
E 353 390 13
E 354 391 13
E 355 392 13
E 356 393 13
E 357 394 13
E 358 395 13
E 359 396 13
E 360 397 13
E 361 398 13
E 362 400 13
E 363 401 13
E 364 402 13
E 365 403 13
E 366 404 13
E 367 405 13
E 368 406 13
E 369 407 13
E 370 408 13
E 371 409 13
E 372 410 13
E 373 411 13
E 374 412 13
E 375 413 13
E 376 414 13
E 377 415 13
E 378 416 13
E 379 417 13
E 380 418 13
E 381 419 13
E 382 420 13
E 383 421 13
E 384 422 13
E 385 423 13
E 386 424 13
E 387 388 5
E 388 389 5
E 389 390 5
E 390 391 5
E 391 392 5
E 393 394 5
E 394 395 5
E 395 396 5
E 396 397 5
E 397 398 5
E 398 399 5
E 399 400 5
E 400 401 5
E 401 402 5
E 402 403 5
E 403 404 5
E 404 405 5
E 405 406 5
E 406 407 5
E 407 408 5
E 408 409 5
E 409 410 5
E 410 411 5
E 411 412 5
E 412 413 5
E 413 414 5
E 414 415 5
E 415 416 5
E 416 417 5
E 417 418 5
E 418 419 5
E 419 420 5
E 420 421 5
E 421 422 5
E 422 423 5
E 423 424 5
E 387 425 13
E 388 426 13
E 389 427 13
E 390 428 13
E 391 429 13
E 392 430 13
E 393 432 13
E 396 435 13
E 397 436 13
E 398 437 13
E 399 438 13
E 400 439 13
E 402 440 13
E 404 441 13
E 406 442 13
E 407 443 13
E 408 444 13
E 409 445 13
E 410 446 13
E 411 447 13
E 413 449 13
E 414 450 13
E 415 451 13
E 417 453 13
E 418 454 13
E 419 455 13
E 420 456 13
E 421 457 13
E 422 458 13
E 423 459 13
E 424 460 13
E 425 426 5
E 426 427 5
E 427 428 5
E 428 429 5
E 429 430 5
E 430 431 5
E 431 432 5
E 432 433 5
E 433 434 5
E 434 435 5
E 435 436 5
E 436 437 5
E 437 438 5
E 438 439 5
E 442 443 5
E 443 444 5
E 444 445 5
E 445 446 5
E 446 447 5
E 447 448 5
E 448 449 5
E 449 450 5
E 450 451 5
E 451 452 5
E 452 453 5
E 453 454 5
E 454 455 5
E 455 456 5
E 456 457 5
E 457 458 5
E 458 459 5
E 459 460 5
E 425 461 13
E 426 462 13
E 428 464 13
E 429 465 13
E 430 466 13
E 431 467 13
E 432 468 13
E 434 469 13
E 436 471 13
E 437 472 13
E 438 473 13
E 439 474 13
E 440 475 13
E 441 476 13
E 442 477 13
E 444 479 13
E 447 482 13
E 449 484 13
E 451 485 13
E 452 486 13
E 453 487 13
E 454 488 13
E 455 489 13
E 456 490 13
E 458 492 13
E 459 493 13
E 460 494 13
E 461 462 5
E 462 463 5
E 463 464 5
E 464 465 5
E 465 466 5
E 466 467 5
E 467 468 5
E 469 470 5
E 470 471 5
E 471 472 5
E 472 473 5
E 473 474 5
E 477 478 5
E 478 479 5
E 479 480 5
E 480 481 5
E 481 482 5
E 482 483 5
E 483 484 5
E 485 486 5
E 486 487 5
E 487 488 5
E 488 489 5
E 489 490 5
E 490 491 5
E 491 492 5
E 492 493 5
E 493 494 5
E 462 496 13
E 463 497 13
E 464 498 13
E 467 501 13
E 468 502 13
E 469 503 13
E 471 504 13
E 473 506 13
E 474 507 13
E 475 509 13
E 476 511 13
E 477 513 13
E 478 514 13
E 480 516 13
E 481 517 13
E 482 518 13
E 484 520 13
E 485 521 13
E 486 522 13
E 487 523 13
E 488 524 13
E 489 525 13
E 490 526 13
E 492 527 13
E 494 528 13
E 495 496 5
E 496 497 5
E 497 498 5
E 498 499 5
E 499 500 5
E 500 501 5
E 501 502 5
E 504 505 5
E 505 506 5
E 506 507 5
E 507 508 5
E 508 509 5
E 509 510 5
E 510 511 5
E 511 512 5
E 512 513 5
E 513 514 5
E 514 515 5
E 515 516 5
E 516 517 5
E 517 518 5
E 518 519 5
E 519 520 5
E 521 522 5
E 522 523 5
E 523 524 5
E 524 525 5
E 525 526 5
E 495 529 13
E 498 532 13
E 499 533 13
E 502 536 13
E 503 538 13
E 504 539 13
E 505 540 13
E 506 541 13
E 507 542 13
E 508 543 13
E 509 544 13
E 510 545 13
E 511 546 13
E 512 547 13
E 513 548 13
E 514 549 13
E 515 550 13
E 516 551 13
E 517 552 13
E 519 554 13
E 520 555 13
E 521 557 13
E 523 558 13
E 524 559 13
E 525 560 13
E 526 561 13
E 527 562 13
E 528 563 13
E 529 530 5
E 530 531 5
E 531 532 5
E 532 533 5
E 533 534 5
E 534 535 5
E 535 536 5
E 536 537 5
E 537 538 5
E 539 540 5
E 540 541 5
E 541 542 5
E 542 543 5
E 543 544 5
E 544 545 5
E 545 546 5
E 546 547 5
E 547 548 5
E 548 549 5
E 549 550 5
E 550 551 5
E 551 552 5
E 552 553 5
E 553 554 5
E 554 555 5
E 555 556 5
E 556 557 5
E 558 559 5
E 559 560 5
E 560 561 5
E 529 564 13
E 532 567 13
E 535 570 13
E 536 571 13
E 537 572 13
E 538 573 13
E 539 575 13
E 541 576 13
E 544 579 13
E 545 580 13
E 546 581 13
E 547 582 13
E 549 584 13
E 552 587 13
E 555 590 13
E 556 591 13
E 557 592 13
E 558 593 13
E 559 594 13
E 560 595 13
E 561 596 13
E 562 598 13
E 563 600 13
E 564 565 5
E 565 566 5
E 566 567 5
E 567 568 5
E 568 569 5
E 569 570 5
E 570 571 5
E 571 572 5
E 572 573 5
E 573 574 5
E 574 575 5
E 576 577 5
E 577 578 5
E 578 579 5
E 579 580 5
E 580 581 5
E 581 582 5
E 582 583 5
E 583 584 5
E 584 585 5
E 585 586 5
E 586 587 5
E 587 588 5
E 588 589 5
E 589 590 5
E 590 591 5
E 591 592 5
E 593 594 5
E 594 595 5
E 595 596 5
E 596 597 5
E 597 598 5
E 598 599 5
E 599 600 5
E 564 601 13
E 565 602 13
E 566 603 13
E 569 606 13
E 572 609 13
E 573 610 13
E 574 611 13
E 575 612 13
E 576 613 13
E 577 614 13
E 578 615 13
E 579 616 13
E 580 617 13
E 581 618 13
E 582 619 13
E 583 620 13
E 584 621 13
E 585 622 13
E 586 623 13
E 589 626 13
E 590 627 13
E 592 629 13
E 593 631 13
E 595 632 13
E 596 633 13
E 597 634 13
E 598 635 13
E 599 636 13
E 600 637 13
E 601 602 5
E 602 603 5
E 603 604 5
E 604 605 5
E 605 606 5
E 606 607 5
E 607 608 5
E 608 609 5
E 609 610 5
E 610 611 5
E 611 612 5
E 613 614 5
E 614 615 5
E 615 616 5
E 616 617 5
E 617 618 5
E 618 619 5
E 619 620 5
E 620 621 5
E 621 622 5
E 622 623 5
E 623 624 5
E 624 625 5
E 625 626 5
E 626 627 5
E 627 628 5
E 628 629 5
E 629 630 5
E 630 631 5
E 632 633 5
E 633 634 5
E 634 635 5
E 635 636 5
E 636 637 5
E 603 640 13
E 604 641 13
E 605 642 13
E 608 645 13
E 609 646 13
E 612 649 13
E 613 651 13
E 614 652 13
E 616 654 13
E 617 655 13
E 618 656 13
E 619 657 13
E 621 659 13
E 622 660 13
E 623 661 13
E 626 664 13
E 629 667 13
E 630 668 13
E 631 669 13
E 632 670 13
E 633 671 13
E 636 674 13
E 637 675 13
E 638 639 5
E 639 640 5
E 640 641 5
E 641 642 5
E 642 643 5
E 643 644 5
E 644 645 5
E 645 646 5
E 646 647 5
E 647 648 5
E 648 649 5
E 649 650 5
E 650 651 5
E 651 652 5
E 652 653 5
E 653 654 5
E 654 655 5
E 655 656 5
E 656 657 5
E 657 658 5
E 658 659 5
E 659 660 5
E 660 661 5
E 661 662 5
E 662 663 5
E 663 664 5
E 664 665 5
E 665 666 5
E 666 667 5
E 667 668 5
E 668 669 5
E 670 671 5
E 671 672 5
E 672 673 5
E 673 674 5
E 674 675 5
E 638 676 13
E 639 677 13
E 640 678 13
E 641 679 13
E 642 680 13
E 643 681 13
E 644 682 13
E 645 683 13
E 646 684 13
E 647 685 13
E 648 686 13
E 649 687 13
E 650 688 13
E 651 689 13
E 652 690 13
E 653 691 13
E 654 692 13
E 655 693 13
E 656 694 13
E 657 695 13
E 658 696 13
E 659 697 13
E 660 698 13
E 661 699 13
E 663 701 13
E 664 702 13
E 665 703 13
E 668 706 13
E 669 707 13
E 670 709 13
E 671 710 13
E 673 712 13
E 676 677 5
E 677 678 5
E 678 679 5
E 679 680 5
E 680 681 5
E 681 682 5
E 682 683 5
E 683 684 5
E 684 685 5
E 685 686 5
E 686 687 5
E 687 688 5
E 688 689 5
E 689 690 5
E 690 691 5
E 691 692 5
E 692 693 5
E 693 694 5
E 694 695 5
E 695 696 5
E 696 697 5
E 697 698 5
E 698 699 5
E 699 700 5
E 700 701 5
E 701 702 5
E 702 703 5
E 703 704 5
E 704 705 5
E 705 706 5
E 706 707 5
E 707 708 5
E 708 709 5
E 709 710 5
E 710 711 5
E 711 712 5
E 712 713 5
E 713 714 5
E 676 715 13
E 677 716 13
E 678 717 13
E 679 718 13
E 680 719 13
E 681 720 13
E 682 721 13
E 683 722 13
E 684 723 13
E 686 724 13
E 687 725 13
E 688 726 13
E 690 728 13
E 692 730 13
E 693 731 13
E 694 732 13
E 695 733 13
E 697 735 13
E 698 736 13
E 699 737 13
E 700 738 13
E 701 739 13
E 702 740 13
E 703 741 13
E 704 742 13
E 705 743 13
E 706 744 13
E 707 745 13
E 708 746 13
E 709 747 13
E 712 750 13
E 713 751 13
E 715 716 5
E 716 717 5
E 717 718 5
E 718 719 5
E 719 720 5
E 720 721 5
E 721 722 5
E 722 723 5
E 724 725 5
E 725 726 5
E 726 727 5
E 727 728 5
E 728 729 5
E 729 730 5
E 730 731 5
E 731 732 5
E 732 733 5
E 733 734 5
E 734 735 5
E 735 736 5
E 736 737 5
E 737 738 5
E 738 739 5
E 739 740 5
E 740 741 5
E 741 742 5
E 742 743 5
E 743 744 5
E 744 745 5
E 745 746 5
E 746 747 5
E 747 748 5
E 748 749 5
E 749 750 5
E 750 751 5
E 751 752 5
E 715 753 13
E 716 754 13
E 717 755 13
E 718 756 13
E 719 757 13
E 720 758 13
E 721 759 13
E 722 760 13
E 723 761 13
E 724 762 13
E 725 763 13
E 726 764 13
E 728 766 13
E 730 768 13
E 731 769 13
E 732 770 13
E 733 771 13
E 734 772 13
E 735 773 13
E 736 774 13
E 739 777 13
E 742 780 13
E 743 781 13
E 744 782 13
E 745 783 13
E 746 784 13
E 747 785 13
E 748 786 13
E 750 788 13
E 752 790 13
E 753 754 5
E 754 755 5
E 755 756 5
E 756 757 5
E 757 758 5
E 758 759 5
E 759 760 5
E 760 761 5
E 762 763 5
E 763 764 5
E 764 765 5
E 765 766 5
E 766 767 5
E 767 768 5
E 768 769 5
E 769 770 5
E 770 771 5
E 771 772 5
E 772 773 5
E 773 774 5
E 774 775 5
E 775 776 5
E 776 777 5
E 777 778 5
E 778 779 5
E 779 780 5
E 780 781 5
E 781 782 5
E 782 783 5
E 783 784 5
E 784 785 5
E 785 786 5
E 786 787 5
E 787 788 5
E 788 789 5
E 789 790 5
E 753 791 13
E 754 792 13
E 756 794 13
E 757 795 13
E 758 796 13
E 759 797 13
E 760 798 13
E 761 799 13
E 762 801 13
E 763 802 13
E 764 803 13
E 765 804 13
E 766 805 13
E 767 806 13
E 768 807 13
E 769 808 13
E 770 809 13
E 771 810 13
E 772 811 13
E 774 813 13
E 775 814 13
E 777 816 13
E 778 817 13
E 779 818 13
E 780 819 13
E 781 820 13
E 782 821 13
E 784 823 13
E 785 824 13
E 786 825 13
E 787 826 13
E 788 827 13
E 789 828 13
E 790 829 13
E 791 792 5
E 792 793 5
E 793 794 5
E 794 795 5
E 795 796 5
E 796 797 5
E 797 798 5
E 798 799 5
E 799 800 5
E 800 801 5
E 801 802 5
E 802 803 5
E 803 804 5
E 804 805 5
E 805 806 5
E 806 807 5
E 807 808 5
E 808 809 5
E 809 810 5
E 810 811 5
E 811 812 5
E 812 813 5
E 813 814 5
E 814 815 5
E 815 816 5
E 816 817 5
E 817 818 5
E 818 819 5
E 819 820 5
E 820 821 5
E 821 822 5
E 822 823 5
E 823 824 5
E 824 825 5
E 825 826 5
E 826 827 5
E 827 828 5
E 828 829 5
E 791 830 13
E 792 831 13
E 793 832 13
E 794 833 13
E 795 834 13
E 796 835 13
E 799 838 13
E 800 839 13
E 801 840 13
E 802 841 13
E 803 842 13
E 805 844 13
E 806 845 13
E 807 846 13
E 809 848 13
E 811 850 13
E 812 851 13
E 813 852 13
E 814 853 13
E 815 854 13
E 816 855 13
E 817 856 13
E 818 857 13
E 819 858 13
E 820 859 13
E 821 860 13
E 822 861 13
E 823 862 13
E 825 864 13
E 827 866 13
E 829 868 13
E 830 831 5
E 831 832 5
E 832 833 5
E 833 834 5
E 834 835 5
E 835 836 5
E 836 837 5
E 837 838 5
E 838 839 5
E 839 840 5
E 840 841 5
E 841 842 5
E 842 843 5
E 843 844 5
E 844 845 5
E 845 846 5
E 846 847 5
E 847 848 5
E 848 849 5
E 849 850 5
E 850 851 5
E 851 852 5
E 852 853 5
E 853 854 5
E 854 855 5
E 855 856 5
E 856 857 5
E 857 858 5
E 858 859 5
E 859 860 5
E 860 861 5
E 861 862 5
E 862 863 5
E 863 864 5
E 864 865 5
E 865 866 5
E 866 867 5
E 867 868 5
E 830 869 13
E 831 870 13
E 832 871 13
E 833 872 13
E 834 873 13
E 835 874 13
E 836 875 13
E 837 876 13
E 839 878 13
E 841 880 13
E 842 881 13
E 843 882 13
E 844 883 13
E 845 884 13
E 846 885 13
E 847 886 13
E 848 887 13
E 849 888 13
E 850 889 13
E 852 891 13
E 853 892 13
E 855 894 13
E 856 895 13
E 857 896 13
E 858 897 13
E 859 898 13
E 860 899 13
E 861 900 13
E 862 901 13
E 863 902 13
E 864 903 13
E 865 904 13
E 866 905 13
E 867 906 13
E 868 907 13
E 869 870 5
E 870 871 5
E 871 872 5
E 872 873 5
E 873 874 5
E 874 875 5
E 875 876 5
E 876 877 5
E 877 878 5
E 878 879 5
E 879 880 5
E 880 881 5
E 881 882 5
E 882 883 5
E 883 884 5
E 884 885 5
E 885 886 5
E 886 887 5
E 887 888 5
E 888 889 5
E 889 890 5
E 890 891 5
E 891 892 5
E 892 893 5
E 893 894 5
E 894 895 5
E 895 896 5
E 896 897 5
E 897 898 5
E 898 899 5
E 899 900 5
E 900 901 5
E 901 902 5
E 902 903 5
E 903 904 5
E 904 905 5
E 905 906 5
E 906 907 5
E 869 908 13
E 870 909 13
E 871 910 13
E 872 911 13
E 873 912 13
E 874 913 13
E 875 914 13
E 876 915 13
E 877 916 13
E 878 917 13
E 879 918 13
E 880 919 13
E 881 920 13
E 883 922 13
E 885 924 13
E 887 926 13
E 889 928 13
E 890 929 13
E 891 930 13
E 892 931 13
E 893 932 13
E 894 933 13
E 895 934 13
E 896 935 13
E 897 936 13
E 898 937 13
E 899 938 13
E 902 941 13
E 903 942 13
E 904 943 13
E 905 944 13
E 906 945 13
E 907 946 13
E 908 909 5
E 909 910 5
E 910 911 5
E 911 912 5
E 912 913 5
E 913 914 5
E 914 915 5
E 915 916 5
E 916 917 5
E 917 918 5
E 918 919 5
E 919 920 5
E 920 921 5
E 921 922 5
E 922 923 5
E 923 924 5
E 924 925 5
E 925 926 5
E 926 927 5
E 927 928 5
E 928 929 5
E 929 930 5
E 930 931 5
E 931 932 5
E 932 933 5
E 933 934 5
E 934 935 5
E 935 936 5
E 936 937 5
E 937 938 5
E 938 939 5
E 939 940 5
E 940 941 5
E 941 942 5
E 942 943 5
E 943 944 5
E 944 945 5
E 945 946 5
E 908 947 13
E 909 948 13
E 910 949 13
E 911 950 13
E 912 951 13
E 913 952 13
E 914 953 13
E 915 954 13
E 916 955 13
E 917 956 13
E 918 957 13
E 919 958 13
E 920 959 13
E 921 960 13
E 922 961 13
E 923 962 13
E 924 963 13
E 925 964 13
E 926 965 13
E 927 966 13
E 928 967 13
E 929 968 13
E 930 969 13
E 931 970 13
E 932 971 13
E 933 972 13
E 934 973 13
E 935 974 13
E 936 975 13
E 937 976 13
E 938 977 13
E 939 978 13
E 940 979 13
E 941 980 13
E 942 981 13
E 944 983 13
E 945 984 13
E 946 985 13
E 947 948 5
E 948 949 5
E 949 950 5
E 950 951 5
E 951 952 5
E 952 953 5
E 953 954 5
E 954 955 5
E 955 956 5
E 956 957 5
E 957 958 5
E 958 959 5
E 959 960 5
E 960 961 5
E 961 962 5
E 962 963 5
E 963 964 5
E 964 965 5
E 965 966 5
E 966 967 5
E 967 968 5
E 968 969 5
E 969 970 5
E 970 971 5
E 971 972 5
E 972 973 5
E 973 974 5
E 974 975 5
E 975 976 5
E 976 977 5
E 977 978 5
E 978 979 5
E 979 980 5
E 980 981 5
E 981 982 5
E 982 983 5
E 983 984 5
E 984 985 5
E 947 986 13
E 948 987 13
E 949 988 13
E 950 989 13
E 951 990 13
E 952 991 13
E 953 992 13
E 954 993 13
E 956 995 13
E 957 996 13
E 958 997 13
E 959 998 13
E 960 999 13
E 961 1000 13
E 962 1001 13
E 963 1002 13
E 964 1003 13
E 965 1004 13
E 966 1005 13
E 967 1006 13
E 968 1007 13
E 969 1008 13
E 972 1011 13
E 975 1014 13
E 977 1015 13
E 978 1016 13
E 979 1017 13
E 980 1018 13
E 981 1019 13
E 982 1020 13
E 983 1021 13
E 984 1022 13
E 985 1023 13
E 986 987 5
E 987 988 5
E 988 989 5
E 989 990 5
E 990 991 5
E 991 992 5
E 992 993 5
E 993 994 5
E 994 995 5
E 995 996 5
E 996 997 5
E 997 998 5
E 998 999 5
E 999 1000 5
E 1000 1001 5
E 1001 1002 5
E 1002 1003 5
E 1003 1004 5
E 1004 1005 5
E 1005 1006 5
E 1006 1007 5
E 1007 1008 5
E 1008 1009 5
E 1009 1010 5
E 1010 1011 5
E 1011 1012 5
E 1012 1013 5
E 1013 1014 5
E 1015 1016 5
E 1016 1017 5
E 1017 1018 5
E 1018 1019 5
E 1019 1020 5
E 1020 1021 5
E 1021 1022 5
E 1022 1023 5
E 986 1024 13
E 987 1025 13
E 989 1027 13
E 990 1028 13
E 991 1029 13
E 992 1030 13
E 993 1031 13
E 994 1032 13
E 995 1033 13
E 996 1034 13
E 997 1035 13
E 998 1036 13
E 999 1037 13
E 1000 1038 13
E 1001 1039 13
E 1002 1040 13
E 1005 1043 13
E 1006 1044 13
E 1007 1045 13
E 1008 1046 13
E 1009 1047 13
E 1010 1048 13
E 1011 1049 13
E 1014 1052 13
E 1015 1053 13
E 1016 1054 13
E 1017 1055 13
E 1018 1056 13
E 1019 1057 13
E 1020 1058 13
E 1021 1059 13
E 1023 1060 13
E 1024 1025 5
E 1025 1026 5
E 1026 1027 5
E 1027 1028 5
E 1028 1029 5
E 1029 1030 5
E 1030 1031 5
E 1031 1032 5
E 1032 1033 5
E 1033 1034 5
E 1034 1035 5
E 1035 1036 5
E 1036 1037 5
E 1037 1038 5
E 1038 1039 5
E 1039 1040 5
E 1040 1041 5
E 1041 1042 5
E 1042 1043 5
E 1043 1044 5
E 1044 1045 5
E 1045 1046 5
E 1046 1047 5
E 1047 1048 5
E 1048 1049 5
E 1049 1050 5
E 1050 1051 5
E 1051 1052 5
E 1053 1054 5
E 1054 1055 5
E 1055 1056 5
E 1056 1057 5
E 1057 1058 5
E 1058 1059 5
E 1024 1061 13
E 1025 1062 13
E 1027 1064 13
E 1029 1066 13
E 1030 1067 13
E 1031 1068 13
E 1032 1069 13
E 1033 1070 13
E 1034 1071 13
E 1035 1072 13
E 1036 1073 13
E 1037 1074 13
E 1038 1075 13
E 1040 1076 13
E 1041 1077 13
E 1042 1078 13
E 1045 1081 13
E 1048 1084 13
E 1051 1087 13
E 1052 1088 13
E 1053 1090 13
E 1054 1091 13
E 1055 1092 13
E 1056 1093 13
E 1057 1094 13
E 1059 1095 13
E 1060 1096 13
E 1061 1062 5
E 1062 1063 5
E 1063 1064 5
E 1064 1065 5
E 1065 1066 5
E 1066 1067 5
E 1067 1068 5
E 1068 1069 5
E 1069 1070 5
E 1070 1071 5
E 1071 1072 5
E 1072 1073 5
E 1073 1074 5
E 1074 1075 5
E 1076 1077 5
E 1077 1078 5
E 1078 1079 5
E 1079 1080 5
E 1080 1081 5
E 1081 1082 5
E 1082 1083 5
E 1083 1084 5
E 1084 1085 5
E 1085 1086 5
E 1086 1087 5
E 1087 1088 5
E 1088 1089 5
E 1089 1090 5
E 1090 1091 5
E 1091 1092 5
E 1092 1093 5
E 1093 1094 5
E 1061 1097 13
E 1062 1098 13
E 1063 1099 13
E 1064 1100 13
E 1065 1101 13
E 1066 1102 13
E 1067 1103 13
E 1069 1104 13
E 1070 1105 13
E 1071 1106 13
E 1072 1107 13
E 1073 1108 13
E 1074 1109 13
E 1075 1110 13
E 1076 1111 13
E 1078 1112 13
E 1079 1113 13
E 1080 1114 13
E 1083 1117 13
E 1084 1118 13
E 1085 1119 13
E 1086 1120 13
E 1087 1121 13
E 1088 1122 13
E 1089 1123 13
E 1090 1124 13
E 1091 1125 13
E 1093 1126 13
E 1094 1127 13
E 1095 1128 13
E 1096 1130 13
E 1097 1098 5
E 1098 1099 5
E 1099 1100 5
E 1100 1101 5
E 1101 1102 5
E 1102 1103 5
E 1104 1105 5
E 1105 1106 5
E 1106 1107 5
E 1107 1108 5
E 1108 1109 5
E 1109 1110 5
E 1112 1113 5
E 1113 1114 5
E 1114 1115 5
E 1115 1116 5
E 1116 1117 5
E 1117 1118 5
E 1118 1119 5
E 1119 1120 5
E 1120 1121 5
E 1121 1122 5
E 1122 1123 5
E 1123 1124 5
E 1124 1125 5
E 1126 1127 5
E 1128 1129 5
E 1129 1130 5
E 1097 1131 13
E 1098 1132 13
E 1099 1133 13
E 1100 1134 13
E 1101 1135 13
E 1102 1136 13
E 1103 1137 13
E 1104 1138 13
E 1106 1139 13
E 1107 1140 13
E 1108 1141 13
E 1109 1142 13
E 1110 1143 13
E 1111 1145 13
E 1112 1146 13
E 1113 1147 13
E 1114 1148 13
E 1116 1149 13
E 1117 1150 13
E 1118 1151 13
E 1119 1152 13
E 1120 1153 13
E 1121 1154 13
E 1122 1155 13
E 1123 1156 13
E 1125 1158 13
E 1126 1159 13
E 1127 1160 13
E 1128 1162 13
E 1129 1163 13
E 1130 1164 13
E 1131 1132 5
E 1132 1133 5
E 1133 1134 5
E 1134 1135 5
E 1135 1136 5
E 1136 1137 5
E 1139 1140 5
E 1140 1141 5
E 1141 1142 5
E 1142 1143 5
E 1143 1144 5
E 1144 1145 5
E 1146 1147 5
E 1147 1148 5
E 1149 1150 5
E 1150 1151 5
E 1151 1152 5
E 1152 1153 5
E 1153 1154 5
E 1154 1155 5
E 1155 1156 5
E 1156 1157 5
E 1157 1158 5
E 1159 1160 5
E 1160 1161 5
E 1161 1162 5
E 1162 1163 5
E 1163 1164 5
E 1131 1165 13
E 1132 1166 13
E 1133 1167 13
E 1134 1168 13
E 1135 1169 13
E 1136 1170 13
E 1137 1171 13
E 1138 1173 13
E 1139 1174 13
E 1140 1175 13
E 1141 1176 13
E 1142 1177 13
E 1143 1178 13
E 1144 1179 13
E 1145 1180 13
E 1146 1182 13
E 1147 1183 13
E 1148 1184 13
E 1149 1185 13
E 1150 1186 13
E 1151 1187 13
E 1152 1188 13
E 1153 1189 13
E 1154 1190 13
E 1155 1191 13
E 1156 1192 13
E 1157 1193 13
E 1158 1194 13
E 1159 1196 13
E 1160 1197 13
E 1161 1198 13
E 1162 1199 13
E 1163 1200 13
E 1164 1201 13
E 1165 1166 5
E 1166 1167 5
E 1167 1168 5
E 1168 1169 5
E 1169 1170 5
E 1170 1171 5
E 1171 1172 5
E 1172 1173 5
E 1174 1175 5
E 1175 1176 5
E 1176 1177 5
E 1177 1178 5
E 1178 1179 5
E 1179 1180 5
E 1180 1181 5
E 1181 1182 5
E 1182 1183 5
E 1183 1184 5
E 1185 1186 5
E 1186 1187 5
E 1187 1188 5
E 1188 1189 5
E 1189 1190 5
E 1190 1191 5
E 1191 1192 5
E 1192 1193 5
E 1193 1194 5
E 1194 1195 5
E 1195 1196 5
E 1196 1197 5
E 1197 1198 5
E 1198 1199 5
E 1199 1200 5
E 1200 1201 5
E 1165 1202 13
E 1168 1205 13
E 1171 1208 13
E 1172 1209 13
E 1173 1210 13
E 1174 1212 13
E 1175 1213 13
E 1176 1214 13
E 1177 1215 13
E 1178 1216 13
E 1179 1217 13
E 1180 1218 13
E 1181 1219 13
E 1182 1220 13
E 1183 1221 13
E 1184 1222 13
E 1185 1224 13
E 1186 1225 13
E 1188 1226 13
E 1189 1227 13
E 1190 1228 13
E 1191 1229 13
E 1194 1232 13
E 1195 1233 13
E 1196 1234 13
E 1197 1235 13
E 1198 1236 13
E 1201 1239 13
E 1202 1203 5
E 1203 1204 5
E 1204 1205 5
E 1205 1206 5
E 1206 1207 5
E 1207 1208 5
E 1208 1209 5
E 1209 1210 5
E 1210 1211 5
E 1211 1212 5
E 1212 1213 5
E 1213 1214 5
E 1214 1215 5
E 1215 1216 5
E 1216 1217 5
E 1217 1218 5
E 1218 1219 5
E 1219 1220 5
E 1220 1221 5
E 1221 1222 5
E 1222 1223 5
E 1223 1224 5
E 1224 1225 5
E 1226 1227 5
E 1227 1228 5
E 1228 1229 5
E 1229 1230 5
E 1230 1231 5
E 1231 1232 5
E 1232 1233 5
E 1233 1234 5
E 1234 1235 5
E 1235 1236 5
E 1236 1237 5
E 1237 1238 5
E 1238 1239 5
E 1203 1241 13
E 1206 1244 13
E 1209 1247 13
E 1210 1248 13
E 1211 1249 13
E 1212 1250 13
E 1215 1253 13
E 1216 1254 13
E 1217 1255 13
E 1218 1256 13
E 1219 1257 13
E 1221 1258 13
E 1222 1259 13
E 1223 1260 13
E 1224 1261 13
E 1225 1262 13
E 1226 1263 13
E 1227 1264 13
E 1228 1265 13
E 1229 1266 13
E 1230 1267 13
E 1231 1268 13
E 1232 1269 13
E 1233 1270 13
E 1234 1271 13
E 1235 1272 13
E 1236 1273 13
E 1237 1274 13
E 1238 1275 13
E 1239 1276 13
E 1240 1241 5
E 1241 1242 5
E 1242 1243 5
E 1243 1244 5
E 1244 1245 5
E 1245 1246 5
E 1246 1247 5
E 1247 1248 5
E 1248 1249 5
E 1249 1250 5
E 1250 1251 5
E 1251 1252 5
E 1252 1253 5
E 1253 1254 5
E 1254 1255 5
E 1255 1256 5
E 1256 1257 5
E 1258 1259 5
E 1259 1260 5
E 1260 1261 5
E 1261 1262 5
E 1263 1264 5
E 1264 1265 5
E 1265 1266 5
E 1266 1267 5
E 1267 1268 5
E 1268 1269 5
E 1269 1270 5
E 1270 1271 5
E 1271 1272 5
E 1272 1273 5
E 1273 1274 5
E 1274 1275 5
E 1275 1276 5
E 1240 1277 13
E 1241 1278 13
E 1244 1281 13
E 1247 1284 13
E 1250 1287 13
E 1253 1290 13
E 1255 1291 13
E 1256 1292 13
E 1257 1293 13
E 1258 1294 13
E 1259 1295 13
E 1261 1296 13
E 1262 1297 13
E 1263 1299 13
E 1264 1300 13
E 1265 1301 13
E 1266 1302 13
E 1267 1303 13
E 1268 1304 13
E 1269 1305 13
E 1270 1306 13
E 1271 1307 13
E 1272 1308 13
E 1273 1309 13
E 1274 1310 13
E 1275 1311 13
E 1276 1312 13
E 1277 1278 5
E 1278 1279 5
E 1279 1280 5
E 1280 1281 5
E 1281 1282 5
E 1282 1283 5
E 1283 1284 5
E 1284 1285 5
E 1285 1286 5
E 1286 1287 5
E 1287 1288 5
E 1288 1289 5
E 1289 1290 5
E 1291 1292 5
E 1292 1293 5
E 1294 1295 5
E 1296 1297 5
E 1297 1298 5
E 1298 1299 5
E 1299 1300 5
E 1300 1301 5
E 1301 1302 5
E 1302 1303 5
E 1303 1304 5
E 1304 1305 5
E 1305 1306 5
E 1306 1307 5
E 1307 1308 5
E 1308 1309 5
E 1309 1310 5
E 1310 1311 5
E 1311 1312 5
E 1277 1313 13
E 1280 1316 13
E 1281 1317 13
E 1284 1320 13
E 1285 1321 13
E 1286 1322 13
E 1287 1323 13
E 1288 1324 13
E 1290 1325 13
E 1291 1326 13
E 1293 1327 13
E 1294 1329 13
E 1295 1330 13
E 1296 1331 13
E 1297 1332 13
E 1298 1333 13
E 1299 1334 13
E 1301 1335 13
E 1302 1336 13
E 1303 1337 13
E 1304 1338 13
E 1305 1339 13
E 1306 1340 13
E 1307 1341 13
E 1308 1342 13
E 1309 1343 13
E 1310 1344 13
E 1311 1345 13
E 1312 1346 13
E 1313 1314 5
E 1314 1315 5
E 1315 1316 5
E 1316 1317 5
E 1317 1318 5
E 1318 1319 5
E 1319 1320 5
E 1320 1321 5
E 1321 1322 5
E 1322 1323 5
E 1323 1324 5
E 1327 1328 5
E 1328 1329 5
E 1329 1330 5
E 1331 1332 5
E 1332 1333 5
E 1333 1334 5
E 1335 1336 5
E 1336 1337 5
E 1337 1338 5
E 1338 1339 5
E 1339 1340 5
E 1340 1341 5
E 1341 1342 5
E 1342 1343 5
E 1343 1344 5
E 1344 1345 5
E 1345 1346 5
E 1313 1347 13
E 1314 1348 13
E 1317 1351 13
E 1320 1354 13
E 1321 1355 13
E 1322 1356 13
E 1323 1357 13
E 1324 1358 13
E 1325 1359 13
E 1326 1361 13
E 1327 1362 13
E 1328 1363 13
E 1329 1364 13
E 1330 1365 13
E 1331 1367 13
E 1332 1368 13
E 1334 1369 13
E 1335 1370 13
E 1336 1371 13
E 1337 1372 13
E 1338 1373 13
E 1339 1374 13
E 1340 1375 13
E 1341 1376 13
E 1342 1377 13
E 1343 1378 13
E 1346 1381 13
E 1347 1348 5
E 1348 1349 5
E 1349 1350 5
E 1350 1351 5
E 1351 1352 5
E 1352 1353 5
E 1353 1354 5
E 1354 1355 5
E 1355 1356 5
E 1356 1357 5
E 1357 1358 5
E 1359 1360 5
E 1360 1361 5
E 1362 1363 5
E 1363 1364 5
E 1364 1365 5
E 1365 1366 5
E 1366 1367 5
E 1367 1368 5
E 1370 1371 5
E 1371 1372 5
E 1372 1373 5
E 1373 1374 5
E 1374 1375 5
E 1375 1376 5
E 1376 1377 5
E 1377 1378 5
E 1378 1379 5
E 1379 1380 5
E 1380 1381 5
E 1347 1382 13
E 1348 1383 13
E 1349 1384 13
E 1352 1387 13
E 1353 1388 13
E 1354 1389 13
E 1355 1390 13
E 1356 1391 13
E 1357 1392 13
E 1358 1393 13
E 1359 1395 13
E 1360 1396 13
E 1361 1397 13
E 1362 1399 13
E 1363 1400 13
E 1365 1401 13
E 1366 1402 13
E 1367 1403 13
E 1368 1404 13
E 1369 1405 13
E 1370 1407 13
E 1371 1408 13
E 1372 1409 13
E 1373 1410 13
E 1374 1411 13
E 1375 1412 13
E 1376 1413 13
E 1377 1414 13
E 1378 1415 13
E 1381 1418 13
E 1382 1383 5
E 1383 1384 5
E 1384 1385 5
E 1385 1386 5
E 1386 1387 5
E 1387 1388 5
E 1388 1389 5
E 1389 1390 5
E 1390 1391 5
E 1391 1392 5
E 1392 1393 5
E 1393 1394 5
E 1394 1395 5
E 1395 1396 5
E 1396 1397 5
E 1397 1398 5
E 1398 1399 5
E 1399 1400 5
E 1401 1402 5
E 1402 1403 5
E 1403 1404 5
E 1405 1406 5
E 1406 1407 5
E 1407 1408 5
E 1408 1409 5
E 1409 1410 5
E 1410 1411 5
E 1411 1412 5
E 1412 1413 5
E 1413 1414 5
E 1414 1415 5
E 1415 1416 5
E 1416 1417 5
E 1417 1418 5
E 1382 1419 13
E 1383 1420 13
E 1384 1421 13
E 1385 1422 13
E 1386 1423 13
E 1387 1424 13
E 1388 1425 13
E 1389 1426 13
E 1390 1427 13
E 1391 1428 13
E 1392 1429 13
E 1393 1430 13
E 1394 1431 13
E 1395 1432 13
E 1396 1433 13
E 1397 1434 13
E 1398 1435 13
E 1399 1436 13
E 1400 1437 13
E 1401 1438 13
E 1402 1439 13
E 1403 1440 13
E 1404 1441 13
E 1405 1443 13
E 1406 1444 13
E 1407 1445 13
E 1408 1446 13
E 1409 1447 13
E 1410 1448 13
E 1411 1449 13
E 1412 1450 13
E 1413 1451 13
E 1414 1452 13
E 1415 1453 13
E 1416 1454 13
E 1417 1455 13
E 1418 1456 13
E 1419 1420 5
E 1420 1421 5
E 1421 1422 5
E 1422 1423 5
E 1423 1424 5
E 1424 1425 5
E 1425 1426 5
E 1426 1427 5
E 1427 1428 5
E 1428 1429 5
E 1429 1430 5
E 1430 1431 5
E 1431 1432 5
E 1432 1433 5
E 1433 1434 5
E 1434 1435 5
E 1435 1436 5
E 1436 1437 5
E 1438 1439 5
E 1439 1440 5
E 1440 1441 5
E 1441 1442 5
E 1442 1443 5
E 1443 1444 5
E 1444 1445 5
E 1445 1446 5
E 1446 1447 5
E 1447 1448 5
E 1448 1449 5
E 1449 1450 5
E 1450 1451 5
E 1451 1452 5
E 1452 1453 5
E 1453 1454 5
E 1454 1455 5
E 1455 1456 5
E 1421 1459 13
E 1422 1460 13
E 1423 1461 13
E 1424 1462 13
E 1425 1463 13
E 1426 1464 13
E 1427 1465 13
E 1428 1466 13
E 1429 1467 13
E 1430 1468 13
E 1431 1469 13
E 1433 1470 13
E 1434 1471 13
E 1435 1472 13
E 1436 1473 13
E 1437 1474 13
E 1438 1476 13
E 1439 1477 13
E 1440 1478 13
E 1441 1479 13
E 1442 1480 13
E 1443 1481 13
E 1444 1482 13
E 1445 1483 13
E 1446 1484 13
E 1447 1485 13
E 1448 1486 13
E 1449 1487 13
E 1450 1488 13
E 1451 1489 13
E 1452 1490 13
E 1453 1491 13
E 1454 1492 13
E 1455 1493 13
E 1456 1494 13
E 1457 1458 5
E 1458 1459 5
E 1459 1460 5
E 1460 1461 5
E 1461 1462 5
E 1462 1463 5
E 1463 1464 5
E 1464 1465 5
E 1465 1466 5
E 1466 1467 5
E 1467 1468 5
E 1468 1469 5
E 1470 1471 5
E 1471 1472 5
E 1472 1473 5
E 1473 1474 5
E 1474 1475 5
E 1475 1476 5
E 1476 1477 5
E 1477 1478 5
E 1478 1479 5
E 1479 1480 5
E 1480 1481 5
E 1481 1482 5
E 1482 1483 5
E 1483 1484 5
E 1484 1485 5
E 1485 1486 5
E 1486 1487 5
E 1487 1488 5
E 1488 1489 5
E 1489 1490 5
E 1490 1491 5
E 1491 1492 5
E 1492 1493 5
E 1493 1494 5
E 1458 1496 13
E 1461 1499 13
E 1464 1502 13
E 1465 1503 13
E 1466 1504 13
E 1467 1505 13
E 1468 1506 13
E 1469 1507 13
E 1470 1508 13
E 1471 1509 13
E 1472 1510 13
E 1473 1511 13
E 1474 1512 13
E 1475 1513 13
E 1476 1514 13
E 1477 1515 13
E 1478 1516 13
E 1479 1517 13
E 1480 1518 13
E 1481 1519 13
E 1482 1520 13
E 1483 1521 13
E 1484 1522 13
E 1485 1523 13
E 1486 1524 13
E 1487 1525 13
E 1488 1526 13
E 1489 1527 13
E 1490 1528 13
E 1491 1529 13
E 1492 1530 13
E 1493 1531 13
E 1494 1532 13
E 1495 1496 5
E 1496 1497 5
E 1497 1498 5
E 1498 1499 5
E 1499 1500 5
E 1500 1501 5
E 1501 1502 5
E 1502 1503 5
E 1503 1504 5
E 1504 1505 5
E 1505 1506 5
E 1506 1507 5
E 1508 1509 5
E 1509 1510 5
E 1510 1511 5
E 1511 1512 5
E 1512 1513 5
E 1513 1514 5
E 1514 1515 5
E 1515 1516 5
E 1516 1517 5
E 1517 1518 5
E 1518 1519 5
E 1519 1520 5
E 1520 1521 5
E 1521 1522 5
E 1522 1523 5
E 1523 1524 5
E 1524 1525 5
E 1525 1526 5
E 1526 1527 5
E 1527 1528 5
E 1528 1529 5
E 1529 1530 5
E 1530 1531 5
E 1531 1532 5
E 1497 1535 13
E 1500 1538 13
E 1503 1541 13
E 1504 1542 13
E 1505 1543 13
E 1506 1544 13
E 1507 1545 13
E 1508 1547 13
E 1510 1548 13
E 1511 1549 13
E 1512 1550 13
E 1513 1551 13
E 1514 1552 13
E 1515 1553 13
E 1516 1554 13
E 1517 1555 13
E 1518 1556 13
E 1519 1557 13
E 1520 1558 13
E 1521 1559 13
E 1522 1560 13
E 1523 1561 13
E 1525 1562 13
E 1526 1563 13
E 1527 1564 13
E 1528 1565 13
E 1529 1566 13
E 1531 1568 13
E 1532 1569 13
E 1533 1534 5
E 1534 1535 5
E 1535 1536 5
E 1536 1537 5
E 1537 1538 5
E 1538 1539 5
E 1539 1540 5
E 1540 1541 5
E 1541 1542 5
E 1542 1543 5
E 1543 1544 5
E 1544 1545 5
E 1545 1546 5
E 1546 1547 5
E 1548 1549 5
E 1549 1550 5
E 1550 1551 5
E 1551 1552 5
E 1552 1553 5
E 1553 1554 5
E 1554 1555 5
E 1555 1556 5
E 1556 1557 5
E 1557 1558 5
E 1558 1559 5
E 1559 1560 5
E 1560 1561 5
E 1562 1563 5
E 1563 1564 5
E 1564 1565 5
E 1565 1566 5
E 1566 1567 5
E 1567 1568 5
E 1568 1569 5
E 1534 1570 13
E 1536 1571 13
E 1537 1572 13
E 1538 1573 13
E 1539 1574 13
E 1540 1575 13
E 1541 1576 13
E 1542 1577 13
E 1544 1578 13
E 1545 1579 13
E 1546 1580 13
E 1547 1581 13
E 1548 1582 13
E 1549 1583 13
E 1550 1584 13
E 1551 1585 13
E 1552 1586 13
E 1553 1587 13
E 1554 1588 13
E 1557 1591 13
E 1558 1592 13
E 1559 1593 13
E 1561 1595 13
E 1562 1596 13
E 1563 1597 13
E 1564 1598 13
E 1565 1599 13
E 1566 1600 13
E 1567 1601 13
E 1568 1602 13
E 1569 1603 13
E 1571 1572 5
E 1572 1573 5
E 1573 1574 5
E 1574 1575 5
E 1575 1576 5
E 1576 1577 5
E 1578 1579 5
E 1579 1580 5
E 1580 1581 5
E 1582 1583 5
E 1583 1584 5
E 1584 1585 5
E 1585 1586 5
E 1586 1587 5
E 1587 1588 5
E 1588 1589 5
E 1589 1590 5
E 1590 1591 5
E 1591 1592 5
E 1592 1593 5
E 1593 1594 5
E 1594 1595 5
E 1596 1597 5
E 1597 1598 5
E 1598 1599 5
E 1599 1600 5
E 1600 1601 5
E 1601 1602 5
E 1602 1603 5
E 1570 1604 13
E 1571 1605 13
E 1573 1606 13
E 1574 1607 13
E 1575 1608 13
E 1576 1609 13
E 1577 1610 13
E 1578 1611 13
E 1579 1612 13
E 1581 1613 13
E 1582 1615 13
E 1583 1616 13
E 1584 1617 13
E 1585 1618 13
E 1586 1619 13
E 1587 1620 13
E 1588 1621 13
E 1590 1622 13
E 1591 1623 13
E 1592 1624 13
E 1593 1625 13
E 1594 1626 13
E 1595 1627 13
E 1596 1629 13
E 1598 1631 13
E 1599 1632 13
E 1600 1633 13
E 1602 1635 13
E 1603 1636 13
E 1606 1607 5
E 1607 1608 5
E 1608 1609 5
E 1609 1610 5
E 1611 1612 5
E 1613 1614 5
E 1614 1615 5
E 1615 1616 5
E 1616 1617 5
E 1617 1618 5
E 1618 1619 5
E 1619 1620 5
E 1620 1621 5
E 1622 1623 5
E 1623 1624 5
E 1624 1625 5
E 1625 1626 5
E 1626 1627 5
E 1627 1628 5
E 1628 1629 5
E 1629 1630 5
E 1630 1631 5
E 1631 1632 5
E 1632 1633 5
E 1633 1634 5
E 1634 1635 5
E 1635 1636 5
E 1604 1638 13
E 1605 1640 13
E 1606 1641 13
E 1608 1642 13
E 1609 1643 13
E 1610 1644 13
E 1611 1646 13
E 1612 1647 13
E 1613 1648 13
E 1614 1649 13
E 1615 1650 13
E 1617 1651 13
E 1619 1652 13
E 1620 1653 13
E 1621 1654 13
E 1622 1655 13
E 1623 1656 13
E 1624 1657 13
E 1627 1660 13
E 1628 1661 13
E 1629 1662 13
E 1630 1663 13
E 1631 1664 13
E 1632 1665 13
E 1635 1668 13
E 1636 1669 13
E 1637 1638 5
E 1638 1639 5
E 1639 1640 5
E 1642 1643 5
E 1643 1644 5
E 1644 1645 5
E 1645 1646 5
E 1646 1647 5
E 1648 1649 5
E 1649 1650 5
E 1652 1653 5
E 1653 1654 5
E 1655 1656 5
E 1656 1657 5
E 1657 1658 5
E 1658 1659 5
E 1659 1660 5
E 1660 1661 5
E 1661 1662 5
E 1662 1663 5
E 1663 1664 5
E 1664 1665 5
E 1665 1666 5
E 1666 1667 5
E 1667 1668 5
E 1668 1669 5
E 1637 1670 13
E 1638 1671 13
E 1639 1672 13
E 1640 1673 13
E 1641 1675 13
E 1642 1676 13
E 1643 1677 13
E 1644 1678 13
E 1645 1679 13
E 1646 1680 13
E 1647 1681 13
E 1648 1683 13
E 1650 1684 13
E 1651 1685 13
E 1652 1686 13
E 1653 1687 13
E 1654 1688 13
E 1655 1690 13
E 1656 1691 13
E 1657 1692 13
E 1658 1693 13
E 1659 1694 13
E 1660 1695 13
E 1661 1696 13
E 1662 1697 13
E 1663 1698 13
E 1664 1699 13
E 1665 1700 13
E 1666 1701 13
E 1669 1704 13
E 1670 1671 5
E 1671 1672 5
E 1672 1673 5
E 1673 1674 5
E 1674 1675 5
E 1676 1677 5
E 1677 1678 5
E 1678 1679 5
E 1679 1680 5
E 1680 1681 5
E 1681 1682 5
E 1682 1683 5
E 1686 1687 5
E 1687 1688 5
E 1688 1689 5
E 1689 1690 5
E 1690 1691 5
E 1691 1692 5
E 1692 1693 5
E 1693 1694 5
E 1694 1695 5
E 1695 1696 5
E 1696 1697 5
E 1697 1698 5
E 1698 1699 5
E 1699 1700 5
E 1700 1701 5
E 1701 1702 5
E 1702 1703 5
E 1703 1704 5
END

SECTION Terminals
Terminals 12
T 1
T 619
T 695
T 726
T 772
T 803
T 807
T 809
T 816
T 839
T 883
T 1667
END

EOF
